p wcnf 21 32 10
5 -1 0
5 -2 0
5 -3 0
5 -4 0
5 -5 0
5 -6 0
5 -7 0
5 -8 0
5 -9 0
5 -10 0
5 -11 0
5 -12 0
5 -13 0
5 -14 0
5 -15 0
5 -16 0
5 -17 0
5 -18 0
5 -19 0
5 -20 0
10 1 2 3 4 5 6 7 8 9 10 11 12 13 14 15 16 17 18 19 20 0
10 21 0
x 10 1 11 13 16 17 19 20 21 0
x 10 2 11 12 19 21 0
x 10 3 13 14 16 21 0
x 10 4 11 13 15 18 19 20 21 0
x 10 5 11 12 13 14 16 18 21 0
x 10 6 11 14 16 17 19 20 21 0
x 10 7 11 12 13 15 17 19 20 21 0
x 10 8 11 13 14 15 16 18 21 0
x 10 9 11 13 16 18 21 0
x 10 10 12 15 18 21 0
